\* The_Mining_Problem *\
Maximize
Income: - 5 flagIfMineActive_1_1 - 4.5 flagIfMineActive_1_2
 - 4.05 flagIfMineActive_1_3 - 3.645 flagIfMineActive_1_4
 - 3.2805 flagIfMineActive_1_5 - 4 flagIfMineActive_2_1
 - 3.6 flagIfMineActive_2_2 - 3.24 flagIfMineActive_2_3
 - 2.916 flagIfMineActive_2_4 - 2.6244 flagIfMineActive_2_5
 - 4 flagIfMineActive_3_1 - 3.6 flagIfMineActive_3_2
 - 3.24 flagIfMineActive_3_3 - 2.916 flagIfMineActive_3_4
 - 2.6244 flagIfMineActive_3_5 - 5 flagIfMineActive_4_1
 - 4.5 flagIfMineActive_4_2 - 4.05 flagIfMineActive_4_3
 - 3.645 flagIfMineActive_4_4 - 3.2805 flagIfMineActive_4_5 + 10 minedOre_1_1
 + 9 minedOre_1_2 + 8.1 minedOre_1_3 + 7.29 minedOre_1_4 + 6.561 minedOre_1_5
 + 10 minedOre_2_1 + 9 minedOre_2_2 + 8.1 minedOre_2_3 + 7.29 minedOre_2_4
 + 6.561 minedOre_2_5 + 10 minedOre_3_1 + 9 minedOre_3_2 + 8.1 minedOre_3_3
 + 7.29 minedOre_3_4 + 6.561 minedOre_3_5 + 10 minedOre_4_1 + 9 minedOre_4_2
 + 8.1 minedOre_4_3 + 7.29 minedOre_4_4 + 6.561 minedOre_4_5
Subject To
Bounds
 flagIfMineActive_1_1 <= 1
 flagIfMineActive_1_2 <= 1
 flagIfMineActive_1_3 <= 1
 flagIfMineActive_1_4 <= 1
 flagIfMineActive_1_5 <= 1
 flagIfMineActive_2_1 <= 1
 flagIfMineActive_2_2 <= 1
 flagIfMineActive_2_3 <= 1
 flagIfMineActive_2_4 <= 1
 flagIfMineActive_2_5 <= 1
 flagIfMineActive_3_1 <= 1
 flagIfMineActive_3_2 <= 1
 flagIfMineActive_3_3 <= 1
 flagIfMineActive_3_4 <= 1
 flagIfMineActive_3_5 <= 1
 flagIfMineActive_4_1 <= 1
 flagIfMineActive_4_2 <= 1
 flagIfMineActive_4_3 <= 1
 flagIfMineActive_4_4 <= 1
 flagIfMineActive_4_5 <= 1
End
